h 1 2 0
h -3 4 0
h 5 -2 0
h -6 -7 0
1 -8 9 0
1 -10 -11 0
1 11 12 0
1 10 13 0
1 14 0
1 -15 16 0
1 -17 11 0
1 -9 -18 0
1 -19 0
1 -9 11 0
1 -20 0
1 7 0
1 -21 0
1 -22 0
1 -23 0
1 24 22 0
1 18 0
1 11 0
1 10 19 0
1 9 17 0
1 11 -15 0
1 17 25 0
1 -1 0
1 11 -24 0
1 4 0
1 26 0
1 13 -16 0
1 -12 0
1 27 0
1 -18 17 0
1 8 18 0
1 15 9 0
1 -22 23 0
1 14 18 0
1 16 -12 0
1 -5 18 0
1 -6 0
1 -2 15 0
1 17 -10 0
1 18 -10 0
1 16 12 0
1 20 -8 0
1 11 -23 0
1 -11 -18 0
1 -10 9 0
1 -9 -17 0
1 -22 10 0
1 21 18 0
1 24 -16 0
1 -15 -22 0
1 8 16 0
1 -8 -16 0
1 -16 10 0
1 17 -8 0
1 16 -24 0
1 2 0
1 -24 -10 0
1 17 -24 0
1 28 0
1 18 24 0
1 -8 0
1 16 -10 0
1 -10 -8 0
1 16 0
1 -8 7 0
1 -19 10 0
1 15 -9 0
1 22 -1 0
1 9 0
1 6 -8 0
1 -9 13 0
1 -27 -28 0
1 -10 -28 0
1 -15 2 0
1 24 0
1 18 8 0
1 15 -18 0
1 -9 -10 0
1 -17 -16 0
1 16 -18 0
1 -13 0
1 -29 -30 0
1 31 0
1 17 30 0
1 -32 -11 0
1 30 33 0
1 22 34 0
1 35 0
1 31 -34 0
1 30 -10 0
1 34 -8 0
1 36 -31 0
1 37 -32 0
1 -37 9 0
1 33 -36 0
1 -34 22 0
1 37 -36 0
1 37 34 0
1 38 0
1 -39 0
1 8 -33 0
1 40 33 0
1 -36 -33 0
1 -9 8 0
1 32 -34 0
1 -29 36 0
1 -22 -36 0
1 -41 0
1 29 4 0
1 36 37 0
1 -42 29 0
1 16 -30 0
1 36 -26 0
1 15 -11 0
1 -14 18 0
1 -32 -29 0
1 16 -42 0
1 -39 34 0
1 32 -42 0
1 -16 -29 0
1 -10 33 0
1 -37 34 0
1 15 0
1 -32 34 0
1 -30 -25 0
1 36 0
1 -34 -42 0
1 37 36 0
1 30 -9 0
1 21 -42 0
1 33 37 0
1 36 -32 0
1 38 42 0
1 -32 42 0
1 32 -30 0
1 30 -32 0
1 34 31 0
1 17 3 0
1 36 10 0
1 30 -33 0
1 -34 33 0
1 -15 -11 0
1 -37 -42 0
1 18 17 0
1 33 -34 0
1 -36 24 0
1 -30 32 0
1 -30 33 0
1 -42 38 0
1 11 33 0
1 37 0
1 -20 -40 0
1 34 -29 0
1 31 40 0
1 -43 -36 0
1 37 12 0
1 -40 29 0
1 -34 -21 0
1 -40 0
1 32 36 0
1 -33 37 0
1 -24 -34 0
1 -38 34 0
1 25 0
1 12 42 0
1 37 -29 0
1 29 -33 0
1 -17 -42 0
1 23 -33 0
1 -43 0
1 29 -18 0
1 17 0
1 -33 34 0
1 11 42 0
1 -32 -42 0
1 -19 -34 0
1 -10 -20 0
1 -36 34 0
1 42 -33 0
1 36 -37 0
1 41 -37 0
1 35 -15 0
1 -30 36 0
1 -43 -34 0
1 39 -41 0
1 -32 29 0
1 28 -24 0
1 -29 -33 0
1 42 -29 0
1 -33 0
1 36 24 0
1 -32 -35 0
1 -8 -32 0
1 -34 -10 0
1 -29 -37 0
1 -42 -32 0
1 -43 15 0
1 19 27 0
1 17 37 0
1 -42 -16 0
1 34 -33 0
1 34 36 0
1 37 14 0
1 -4 -42 0
1 -30 9 0
1 34 0
1 -8 18 0
1 -32 0
1 -17 33 0
1 30 -39 0
1 -36 -42 0
1 15 37 0
1 32 42 0
1 8 -42 0
1 -35 30 0
1 -32 12 0
1 29 0
1 -33 -34 0
1 34 29 0
1 -34 -30 0
1 -10 -29 0
1 43 -33 0
1 -30 0
1 -34 -4 0
1 -18 42 0
1 30 -24 0
1 42 15 0
1 -29 -10 0
1 9 33 0
1 -34 -43 0
1 -15 36 0
1 -33 -40 0
1 30 37 0
1 -34 15 0
1 -42 0
1 31 30 0
1 -32 -10 0
1 -34 -33 0
1 18 33 0
1 32 33 0
1 3 0
1 -30 -33 0
1 -34 36 0
1 -36 -34 0
1 42 30 0
1 33 32 0
1 32 29 0
1 -30 37 0
1 29 -37 0
1 -24 42 0
1 16 9 0
h -32 44 0
1 -44 0
h 45 14 0
1 -45 0
h -36 10 0
h 36 -10 0
h 46 -18 0
2 -46 0
h 47 48 0
1 -48 0
h 49 24 0
1 -49 0
h 50 51 0
1 -51 0
